NAME          
ROWS
 N  OBJ
 L  c1
 L  c2
COLUMNS
    MARKER    'MARKER'                 'INTORG'
    x[1]      c1        267
    x[1]      c2        560
    x[1]      OBJ       -629
    x[2]      c1        226
    x[2]      c2        483
    x[2]      OBJ       -412
    x[3]      c1        974
    x[3]      c2        877
    x[3]      OBJ       -74
    x[4]      c1        357
    x[4]      c2        741
    x[4]      OBJ       -24
    x[5]      c1        385
    x[5]      c2        54
    x[5]      OBJ       -741
    x[6]      c1        18
    x[6]      c2        97
    x[6]      OBJ       -989
    x[7]      c1        961
    x[7]      c2        744
    x[7]      OBJ       -776
    x[8]      c1        314
    x[8]      c2        279
    x[8]      OBJ       -317
    x[9]      c1        701
    x[9]      c2        59
    x[9]      OBJ       -76
    x[10]     c1        282
    x[10]     c2        583
    x[10]     OBJ       -519
    x[11]     c1        315
    x[11]     c2        205
    x[11]     OBJ       -510
    x[12]     c1        468
    x[12]     c2        266
    x[12]     OBJ       -670
    x[13]     c1        246
    x[13]     c2        800
    x[13]     OBJ       -481
    x[14]     c1        402
    x[14]     c2        351
    x[14]     OBJ       -704
    x[15]     c1        414
    x[15]     c2        128
    x[15]     OBJ       -476
    x[16]     c1        581
    x[16]     c2        521
    x[16]     OBJ       -48
    x[17]     c1        11
    x[17]     c2        480
    x[17]     OBJ       -604
    x[18]     c1        936
    x[18]     c2        433
    x[18]     OBJ       -995
    x[19]     c1        296
    x[19]     c2        758
    x[19]     OBJ       -248
    x[20]     c1        830
    x[20]     c2        680
    x[20]     OBJ       -930
    x[21]     c1        715
    x[21]     c2        336
    x[21]     OBJ       -744
    x[22]     c1        40
    x[22]     c2        627
    x[22]     OBJ       -282
    x[23]     c1        255
    x[23]     c2        838
    x[23]     OBJ       -767
    x[24]     c1        251
    x[24]     c2        852
    x[24]     OBJ       -766
    x[25]     c1        462
    x[25]     c2        99
    x[25]     OBJ       -541
    x[26]     c1        683
    x[26]     c2        951
    x[26]     OBJ       -681
    x[27]     c1        363
    x[27]     c2        825
    x[27]     OBJ       -154
    x[28]     c1        888
    x[28]     c2        994
    x[28]     OBJ       -331
    x[29]     c1        577
    x[29]     c2        404
    x[29]     OBJ       -455
    x[30]     c1        155
    x[30]     c2        408
    x[30]     OBJ       -323
RHS
    rhs       c1        6686
    rhs       c2        7716
RANGES
BOUNDS
 LO bounds    x[1]      0
 PL bounds    x[1]
 LO bounds    x[2]      0
 PL bounds    x[2]
 LO bounds    x[3]      0
 PL bounds    x[3]
 LO bounds    x[4]      0
 PL bounds    x[4]
 LO bounds    x[5]      0
 PL bounds    x[5]
 LO bounds    x[6]      0
 PL bounds    x[6]
 LO bounds    x[7]      0
 PL bounds    x[7]
 LO bounds    x[8]      0
 PL bounds    x[8]
 LO bounds    x[9]      0
 PL bounds    x[9]
 LO bounds    x[10]     0
 PL bounds    x[10]
 LO bounds    x[11]     0
 PL bounds    x[11]
 LO bounds    x[12]     0
 PL bounds    x[12]
 LO bounds    x[13]     0
 PL bounds    x[13]
 LO bounds    x[14]     0
 PL bounds    x[14]
 LO bounds    x[15]     0
 PL bounds    x[15]
 LO bounds    x[16]     0
 PL bounds    x[16]
 LO bounds    x[17]     0
 PL bounds    x[17]
 LO bounds    x[18]     0
 PL bounds    x[18]
 LO bounds    x[19]     0
 PL bounds    x[19]
 LO bounds    x[20]     0
 PL bounds    x[20]
 LO bounds    x[21]     0
 PL bounds    x[21]
 LO bounds    x[22]     0
 PL bounds    x[22]
 LO bounds    x[23]     0
 PL bounds    x[23]
 LO bounds    x[24]     0
 PL bounds    x[24]
 LO bounds    x[25]     0
 PL bounds    x[25]
 LO bounds    x[26]     0
 PL bounds    x[26]
 LO bounds    x[27]     0
 PL bounds    x[27]
 LO bounds    x[28]     0
 PL bounds    x[28]
 LO bounds    x[29]     0
 PL bounds    x[29]
 LO bounds    x[30]     0
 PL bounds    x[30]
ENDATA
